SCIP version 5.0.0 [precision: 8 byte] [memory: block] [mode: optimized] [LP solver: NONE] [GitHash: 3bbd232]
Copyright (C) 2002-2017 Konrad-Zuse-Zentrum fuer Informationstechnik Berlin (ZIB)

External codes: 
  Readline EditLine w  GNU library for command line editing (gnu.org/s/readline)
  CppAD 20160000.1     Algorithmic Differentiation of C++ algorithms developed by B. Bell (www.coin-or.org/CppAD)
  ZLIB 1.2.5           General purpose compression library by J. Gailly and M. Adler (zlib.net)
  GMP 6.1.2            GNU Multiple Precision Arithmetic Library developed by T. Granlund (gmplib.org)

user parameter file <scip.set> not found - using default parameters

read problem <../../Split_data/output/biodeg/4/1_sample_biodeg.logreg>
============

File name	:	../../Split_data/output/biodeg/4/1_sample_biodeg.logreg
Problem name 	:	1_sample_biodeg
Number of data	:	844
Number of var	:	41
The given data has linear dependence
1 sets of column vector are linearly dependent:
{ 19}, 

[dim=1] time: 0.027548
[dim=2] time: 0.056257
[dim=3] time: 0.089978
[dim=4] time: 0.121391
[dim=5] time: 0.151691
[dim=6] time: 0.18474
[dim=7] time: 0.213922
[dim=8] time: 0.242702
[dim=9] time: 0.275201
[dim=10] time: 0.302506
[dim=11] time: 0.328835
[dim=12] time: 0.35507
[dim=13] time: 0.380582
[dim=14] time: 0.403876
[dim=15] time: 0.425563
[dim=16] time: 0.447917
[dim=17] time: 0.471571
[dim=18] time: 0.498878
[dim=19] time: 0.519371
[dim=20] time: 0.539497
[dim=21] time: 0.558883
[dim=22] time: 0.573137
[dim=23] time: 0.591384
[dim=24] Time of forward = 0.604308sec.
AIC: 506.406
k: 23

[dim=40] time: 0.162987
[dim=39] time: 0.213221
[dim=38] time: 0.260876
[dim=37] time: 0.300207
[dim=36] time: 0.339026
[dim=35] time: 0.389551
[dim=34] time: 0.43582
[dim=33] time: 0.478202
[dim=32] time: 0.514325
[dim=31] time: 0.55638
[dim=30] time: 0.597685
[dim=29] time: 0.632965
[dim=28] time: 0.671489
[dim=27] time: 0.705669
[dim=26] time: 0.732464
[dim=25] time: 0.759024
[dim=24] time: 0.784071
[dim=23] Time of backward = 0.809206sec.
AIC: 505.759
k: 24
